Sun 20 May 09:35:13 CEST 2018
CPXPARAM_TimeLimit                               45
CPXPARAM_Threads                                 4
CPXPARAM_MIP_Strategy_CallbackReducedLP          0
Tried aggregator 3 times.
MIP Presolve eliminated 4021 rows and 3585 columns.
MIP Presolve modified 5336 coefficients.
Aggregator did 11170 substitutions.
Reduced MIP has 19828 rows, 17881 columns, and 46854 nonzeros.
Reduced MIP has 15462 binaries, 13 generals, 0 SOSs, and 3322 indicators.
Presolve time = 0.19 sec. (482.81 ticks)
Probing time = 0.49 sec. (143.97 ticks)
Tried aggregator 3 times.
Aggregator did 8621 substitutions.
Reduced MIP has 11207 rows, 9260 columns, and 29612 nonzeros.
Reduced MIP has 6841 binaries, 2419 generals, 0 SOSs, and 3322 indicators.
Presolve time = 0.06 sec. (87.94 ticks)
Probing time = 0.20 sec. (85.76 ticks)
Tried aggregator 1 time.
Reduced MIP has 11207 rows, 9260 columns, and 29612 nonzeros.
Reduced MIP has 6841 binaries, 2419 generals, 0 SOSs, and 3322 indicators.
Presolve time = 0.03 sec. (29.64 ticks)
Probing time = 0.02 sec. (7.59 ticks)
Clique table members: 446045.
MIP emphasis: balance optimality and feasibility.
MIP search method: dynamic search.
Parallel mode: deterministic, using up to 4 threads.
Root relaxation solution time = 0.04 sec. (48.93 ticks)

        Nodes                                         Cuts/
   Node  Left     Objective  IInf  Best Integer    Best Bound    ItCnt     Gap

      0     0        0.0000  4205                      0.0000      465         
*     0+    0                           21.0000        0.0000           100.00%
      0     0        0.0000  3999       21.0000 Cliques: 2901      760  100.00%
*     0+    0                           19.0000        0.0000           100.00%
      0     0        0.0000  3703       19.0000 Cliques: 2901      980  100.00%
*     0+    0                           10.0000        0.0000           100.00%
      0     0        0.0000  3010       10.0000 Cliques: 2901     1467  100.00%

Clique cuts applied:  4984

Root node processing (before b&c):
  Real time             =   51.11 sec. (29866.98 ticks)
Parallel b&c, 4 threads:
  Real time             =    0.00 sec. (0.00 ticks)
  Sync time (average)   =    0.00 sec.
  Wait time (average)   =    0.00 sec.
                          ------------
Total (root+branch&cut) =   51.11 sec. (29866.98 ticks)
   | W
 L | 0 1  2  3 4  5  6 7 8 
--------------------------
 0 | . .  .  . .  .  . . . 
 1 | . .  .  . .  .  . . . 
 2 | . .  .  . .  .  . . . 
 3 | . .  .  . .  .  . . . 
 4 | . .  .  . .  .  . . . 
 5 | . .  .  . .  .  . . . 
 6 | . 5  .  . .  .  . . . 
 7 | 8 5  .  . 7 11  . 9 6 
 8 | 8 5 12 12 7 11 10 9 6 
 9 | 3 2 12 12 .  . 10 1 4 
10 | . .  .  . .  .  . . . 
11 | . .  .  . .  .  . . . 
12 | . .  .  . .  .  . . . 
13 | . .  .  . .  .  . . . 
14 | . .  .  . .  .  . . . 
15 | . .  .  . .  .  . . . 
16 | . .  .  . .  .  . . . 
17 | . .  .  . .  .  . . . 
18 | . .  .  . .  .  . . . 
19 | . .  .  . .  .  . . . 
20 | . .  .  . .  .  . . . 

Boxes' corners:       (w,l)
    Box  1 is at 
        top left     (7,9)
        bottom right (7,9)

    Box  2 is at 
        top left     (1,9)
        bottom right (1,9)

    Box  3 is at 
        top left     (0,9)
        bottom right (0,9)

    Box  4 is at 
        top left     (8,9)
        bottom right (8,9)

    Box  5 is at 
        top left     (1,6)
        bottom right (1,8)

    Box  6 is at 
        top left     (8,7)
        bottom right (8,8)

    Box  7 is at 
        top left     (4,7)
        bottom right (4,8)

    Box  8 is at 
        top left     (0,7)
        bottom right (0,8)

    Box  9 is at 
        top left     (7,7)
        bottom right (7,8)

    Box 10 is at 
        top left     (6,8)
        bottom right (6,9)

    Box 11 is at 
        top left     (5,7)
        bottom right (5,8)

    Box 12 is at 
        top left     (2,8)
        bottom right (3,9)

    Roll length used: 10
In 144.22 seconds
